%%% static parameters %%%
timespan = 1;
Clients_N = [1000];
Demand_W = [15];
Lt0 = [4];
Lt1 = [4];
SS_ = [0.85];
DS_D = [20];
K = [200];
MA = [500];
HC = [0.05];
%%% dynamic parameters %%%
lost_ratio_sales_ret_th = 0.009708006538247566;
lost_ratio_sales_ret_w = 2;
lost_ratio_sales_dis_th = 0.003518818249564154;
lost_ratio_sales_dis_w = 16;
lost_ratio_sales_fac_th = 0.0066381828263173265;
lost_ratio_sales_fac_w = 1;
stock_customer_MA_mean_relative_th = 0.0159813584045172;
stock_customer_MA_mean_relative_w = 22;
stock_distributor_MA_mean_relative_th = 0.8624342257900511;
stock_distributor_MA_mean_relative_w = 45;
stock_retailer_MA_mean_relative_th = 0.37668380008499025;
stock_retailer_MA_mean_relative_w = 69;
stock_factory_MA_mean_relative_th = 0.9274286580093374;
stock_factory_MA_mean_relative_w = 46;
